Minimize
  6.5 x_hamburgers + 4 x_chicken_wraps
Subject To
  c1: 800 x_hamburgers + 450 x_chicken_wraps >= 2200
  c2: 12 x_chicken_wraps + 19 x_hamburgers >= 50
  c3: 10 x_chicken_wraps + 20 x_hamburgers >= 70
Integer
  x_hamburgers x_chicken_wraps
End